
Gurobi 11.0.3 (linux64) logging started Mon 18 Nov 2024 08:45:31 PM CST

Set parameter LogFile to value "/home/dlcole3/graph_abstraction/hierarchical_graphs/git_storage/CS1/HP_low_reserves/gurobi_logs/serial/logfile_ST10_2.log"

Gurobi 11.0.3 (linux64) logging started Mon 18 Nov 2024 08:47:16 PM CST

Set parameter LogFile to value "/home/dlcole3/graph_abstraction/hierarchical_graphs/git_storage/CS1/HP_low_reserves/gurobi_logs/serial/logfile_ST10_2.log"
Gurobi Optimizer version 11.0.3 build v11.0.3rc0 (linux64 - "Ubuntu 18.04.3 LTS")

CPU model: Intel(R) Xeon(R) CPU E5-2698 v4 @ 2.20GHz, instruction set [SSE2|AVX|AVX2]
Thread count: 40 physical cores, 80 logical processors, using up to 20 threads

Optimize a model with 29168 rows, 50688 columns and 136175 nonzeros
Model fingerprint: 0xebc31343
Variable types: 46944 continuous, 3744 integer (3744 binary)
Coefficient statistics:
  Matrix range     [6e-01, 2e+04]
  Objective range  [2e+00, 2e+04]
  Bounds range     [5e-02, 2e+05]
  RHS range        [5e-02, 7e+03]
Presolve removed 14148 rows and 38530 columns
Presolve time: 0.37s
Presolved: 15020 rows, 12158 columns, 64289 nonzeros
Variable types: 9109 continuous, 3049 integer (3049 binary)
Found heuristic solution: objective 6285390.3258
Found heuristic solution: objective 6215549.9402

Root relaxation: objective 1.632233e+05, 7944 iterations, 0.44 seconds (0.36 work units)

    Nodes    |    Current Node    |     Objective Bounds      |     Work
 Expl Unexpl |  Obj  Depth IntInf | Incumbent    BestBd   Gap | It/Node Time

     0     0 163223.281    0   39 6215549.94 163223.281  97.4%     -    1s
H    0     0                    6215539.0862 163223.281  97.4%     -    1s
H    0     0                    447563.47479 163223.281  63.5%     -    1s
     0     0 163300.268    0   83 447563.475 163300.268  63.5%     -    1s
H    0     0                    292718.40710 163300.268  44.2%     -    2s
     0     0 163324.248    0   95 292718.407 163324.248  44.2%     -    2s
H    0     0                    165029.71024 163327.934  1.03%     -    2s
     0     0 163327.934    0  100 165029.710 163327.934  1.03%     -    2s
H    0     0                    164373.37349 163328.905  0.64%     -    2s
     0     0 163328.905    0  103 164373.373 163328.905  0.64%     -    2s
     0     0 163328.905    0  117 164373.373 163328.905  0.64%     -    2s
     0     0 163328.905    0  101 164373.373 163328.905  0.64%     -    2s
     0     0 163329.135    0  101 164373.373 163329.135  0.64%     -    3s
     0     0 163329.135    0  110 164373.373 163329.135  0.64%     -    3s
     0     0 163334.984    0  110 164373.373 163334.984  0.63%     -    3s
     0     0 163334.984    0   26 164373.373 163334.984  0.63%     -    4s
     0     0 163334.984    0   47 164373.373 163334.984  0.63%     -    4s
     0     0 163334.984    0   53 164373.373 163334.984  0.63%     -    4s
     0     0 163334.984    0   55 164373.373 163334.984  0.63%     -    4s
     0     0 163334.984    0   65 164373.373 163334.984  0.63%     -    4s
     0     0 163334.984    0   64 164373.373 163334.984  0.63%     -    4s
     0     0 163543.601    0   64 164373.373 163543.601  0.50%     -    5s
     0     0 163543.601    0   64 164373.373 163543.601  0.50%     -    5s
     0     2 163543.601    0   64 164373.373 163543.601  0.50%     -    6s
H   42    35                    164245.77512 163543.601  0.43%  78.4    7s
H   76    60                    164203.09494 163543.601  0.40%  66.1    7s
H   91    62                    164203.09493 163543.601  0.40%  64.4    7s
H   99    62                    164203.09490 163543.601  0.40%  64.2    7s
H  206   112                    164189.44519 163543.601  0.39%  43.4    8s
H  295   149                    164186.30457 163543.601  0.39%  34.9    8s
H  369   189                    164142.68712 163543.601  0.36%  31.0   10s
H  400   193                    164142.68711 163543.601  0.36%  30.4   10s

Cutting planes:
  Gomory: 5
  MIR: 2

Explored 1403 nodes (46321 simplex iterations) in 12.25 seconds (9.86 work units)
Thread count was 20 (of 80 available processors)

Solution count 10: 164143 164143 164186 ... 6.21554e+06

Optimal solution found (tolerance 3.00e-03)
Best objective 1.641426871170e+05, best bound 1.637012866513e+05, gap 0.2689%

User-callback calls 5898, time in user-callback 0.01 sec
